<?xml version = "1.0" standalone="yes"?>
<!-- This file has been generated by DOcplex version 2.23.222  -->
<CPLEXSolution version="1.0">
 <header
   problemName="CVRP"
   objectiveValue="11384.6"
  />
 <variables>
  <variable name="x_0_2" index="1" value="1.00000"/>
  <variable name="x_0_3" index="2" value="1.00000"/>
  <variable name="x_0_5" index="4" value="1.00000"/>
  <variable name="x_0_6" index="5" value="1.00000"/>
  <variable name="x_0_8" index="7" value="1.00000"/>
  <variable name="x_0_9" index="8" value="1.00000"/>
  <variable name="x_1_0" index="12" value="1.00000"/>
  <variable name="x_2_0" index="24" value="1.00000"/>
  <variable name="x_3_10" index="45" value="1.00000"/>
  <variable name="x_4_0" index="48" value="1.00000"/>
  <variable name="x_5_11" index="70" value="1.00000"/>
  <variable name="x_6_12" index="83" value="1.00000"/>
  <variable name="x_7_0" index="84" value="1.00000"/>
  <variable name="x_8_7" index="103" value="1.00000"/>
  <variable name="x_9_0" index="108" value="1.00000"/>
  <variable name="x_10_4" index="124" value="1.00000"/>
  <variable name="x_11_1" index="133" value="1.00000"/>
  <variable name="x_12_0" index="144" value="1.00000"/>
  <variable name="u_1" index="156" value="79.00000"/>
  <variable name="u_2" index="157" value="79.00000"/>
  <variable name="u_3" index="158" value="7.00000"/>
  <variable name="u_4" index="159" value="79.00000"/>
  <variable name="u_5" index="160" value="52.00000"/>
  <variable name="u_6" index="161" value="47.00000"/>
  <variable name="u_7" index="162" value="78.00000"/>
  <variable name="u_8" index="163" value="14.00000"/>
  <variable name="u_9" index="164" value="66.00000"/>
  <variable name="u_10" index="165" value="38.00000"/>
  <variable name="u_11" index="166" value="67.00000"/>
  <variable name="u_12" index="167" value="79.00000"/>
 </variables>
</CPLEXSolution>
